benchmarks/ising_models/2DLattices/SqrLattices/J=1/11x11_square_lattice.wcnf
p wcnf 341 880
w -2 0.367879 0
w 2 2.718282 0
w -3 0.367879 0
w 3 2.718282 0
w -5 0.367879 0
w 5 2.718282 0
w -6 0.367879 0
w 6 2.718282 0
w -8 0.367879 0
w 8 2.718282 0
w -9 0.367879 0
w 9 2.718282 0
w -11 0.367879 0
w 11 2.718282 0
w -12 0.367879 0
w 12 2.718282 0
w -14 0.367879 0
w 14 2.718282 0
w -15 0.367879 0
w 15 2.718282 0
w -17 0.367879 0
w 17 2.718282 0
w -18 0.367879 0
w 18 2.718282 0
w -20 0.367879 0
w 20 2.718282 0
w -21 0.367879 0
w 21 2.718282 0
w -23 0.367879 0
w 23 2.718282 0
w -24 0.367879 0
w 24 2.718282 0
w -26 0.367879 0
w 26 2.718282 0
w -27 0.367879 0
w 27 2.718282 0
w -29 0.367879 0
w 29 2.718282 0
w -30 0.367879 0
w 30 2.718282 0
w -32 0.367879 0
w 32 2.718282 0
w -34 0.367879 0
w 34 2.718282 0
w -35 0.367879 0
w 35 2.718282 0
w -37 0.367879 0
w 37 2.718282 0
w -38 0.367879 0
w 38 2.718282 0
w -40 0.367879 0
w 40 2.718282 0
w -41 0.367879 0
w 41 2.718282 0
w -43 0.367879 0
w 43 2.718282 0
w -44 0.367879 0
w 44 2.718282 0
w -46 0.367879 0
w 46 2.718282 0
w -47 0.367879 0
w 47 2.718282 0
w -49 0.367879 0
w 49 2.718282 0
w -50 0.367879 0
w 50 2.718282 0
w -52 0.367879 0
w 52 2.718282 0
w -53 0.367879 0
w 53 2.718282 0
w -55 0.367879 0
w 55 2.718282 0
w -56 0.367879 0
w 56 2.718282 0
w -58 0.367879 0
w 58 2.718282 0
w -59 0.367879 0
w 59 2.718282 0
w -61 0.367879 0
w 61 2.718282 0
w -62 0.367879 0
w 62 2.718282 0
w -64 0.367879 0
w 64 2.718282 0
w -66 0.367879 0
w 66 2.718282 0
w -67 0.367879 0
w 67 2.718282 0
w -69 0.367879 0
w 69 2.718282 0
w -70 0.367879 0
w 70 2.718282 0
w -72 0.367879 0
w 72 2.718282 0
w -73 0.367879 0
w 73 2.718282 0
w -75 0.367879 0
w 75 2.718282 0
w -76 0.367879 0
w 76 2.718282 0
w -78 0.367879 0
w 78 2.718282 0
w -79 0.367879 0
w 79 2.718282 0
w -81 0.367879 0
w 81 2.718282 0
w -82 0.367879 0
w 82 2.718282 0
w -84 0.367879 0
w 84 2.718282 0
w -85 0.367879 0
w 85 2.718282 0
w -87 0.367879 0
w 87 2.718282 0
w -88 0.367879 0
w 88 2.718282 0
w -90 0.367879 0
w 90 2.718282 0
w -91 0.367879 0
w 91 2.718282 0
w -93 0.367879 0
w 93 2.718282 0
w -94 0.367879 0
w 94 2.718282 0
w -96 0.367879 0
w 96 2.718282 0
w -98 0.367879 0
w 98 2.718282 0
w -99 0.367879 0
w 99 2.718282 0
w -101 0.367879 0
w 101 2.718282 0
w -102 0.367879 0
w 102 2.718282 0
w -104 0.367879 0
w 104 2.718282 0
w -105 0.367879 0
w 105 2.718282 0
w -107 0.367879 0
w 107 2.718282 0
w -108 0.367879 0
w 108 2.718282 0
w -110 0.367879 0
w 110 2.718282 0
w -111 0.367879 0
w 111 2.718282 0
w -113 0.367879 0
w 113 2.718282 0
w -114 0.367879 0
w 114 2.718282 0
w -116 0.367879 0
w 116 2.718282 0
w -117 0.367879 0
w 117 2.718282 0
w -119 0.367879 0
w 119 2.718282 0
w -120 0.367879 0
w 120 2.718282 0
w -122 0.367879 0
w 122 2.718282 0
w -123 0.367879 0
w 123 2.718282 0
w -125 0.367879 0
w 125 2.718282 0
w -126 0.367879 0
w 126 2.718282 0
w -128 0.367879 0
w 128 2.718282 0
w -130 0.367879 0
w 130 2.718282 0
w -131 0.367879 0
w 131 2.718282 0
w -133 0.367879 0
w 133 2.718282 0
w -134 0.367879 0
w 134 2.718282 0
w -136 0.367879 0
w 136 2.718282 0
w -137 0.367879 0
w 137 2.718282 0
w -139 0.367879 0
w 139 2.718282 0
w -140 0.367879 0
w 140 2.718282 0
w -142 0.367879 0
w 142 2.718282 0
w -143 0.367879 0
w 143 2.718282 0
w -145 0.367879 0
w 145 2.718282 0
w -146 0.367879 0
w 146 2.718282 0
w -148 0.367879 0
w 148 2.718282 0
w -149 0.367879 0
w 149 2.718282 0
w -151 0.367879 0
w 151 2.718282 0
w -152 0.367879 0
w 152 2.718282 0
w -154 0.367879 0
w 154 2.718282 0
w -155 0.367879 0
w 155 2.718282 0
w -157 0.367879 0
w 157 2.718282 0
w -158 0.367879 0
w 158 2.718282 0
w -160 0.367879 0
w 160 2.718282 0
w -162 0.367879 0
w 162 2.718282 0
w -163 0.367879 0
w 163 2.718282 0
w -165 0.367879 0
w 165 2.718282 0
w -166 0.367879 0
w 166 2.718282 0
w -168 0.367879 0
w 168 2.718282 0
w -169 0.367879 0
w 169 2.718282 0
w -171 0.367879 0
w 171 2.718282 0
w -172 0.367879 0
w 172 2.718282 0
w -174 0.367879 0
w 174 2.718282 0
w -175 0.367879 0
w 175 2.718282 0
w -177 0.367879 0
w 177 2.718282 0
w -178 0.367879 0
w 178 2.718282 0
w -180 0.367879 0
w 180 2.718282 0
w -181 0.367879 0
w 181 2.718282 0
w -183 0.367879 0
w 183 2.718282 0
w -184 0.367879 0
w 184 2.718282 0
w -186 0.367879 0
w 186 2.718282 0
w -187 0.367879 0
w 187 2.718282 0
w -189 0.367879 0
w 189 2.718282 0
w -190 0.367879 0
w 190 2.718282 0
w -192 0.367879 0
w 192 2.718282 0
w -194 0.367879 0
w 194 2.718282 0
w -195 0.367879 0
w 195 2.718282 0
w -197 0.367879 0
w 197 2.718282 0
w -198 0.367879 0
w 198 2.718282 0
w -200 0.367879 0
w 200 2.718282 0
w -201 0.367879 0
w 201 2.718282 0
w -203 0.367879 0
w 203 2.718282 0
w -204 0.367879 0
w 204 2.718282 0
w -206 0.367879 0
w 206 2.718282 0
w -207 0.367879 0
w 207 2.718282 0
w -209 0.367879 0
w 209 2.718282 0
w -210 0.367879 0
w 210 2.718282 0
w -212 0.367879 0
w 212 2.718282 0
w -213 0.367879 0
w 213 2.718282 0
w -215 0.367879 0
w 215 2.718282 0
w -216 0.367879 0
w 216 2.718282 0
w -218 0.367879 0
w 218 2.718282 0
w -219 0.367879 0
w 219 2.718282 0
w -221 0.367879 0
w 221 2.718282 0
w -222 0.367879 0
w 222 2.718282 0
w -224 0.367879 0
w 224 2.718282 0
w -226 0.367879 0
w 226 2.718282 0
w -227 0.367879 0
w 227 2.718282 0
w -229 0.367879 0
w 229 2.718282 0
w -230 0.367879 0
w 230 2.718282 0
w -232 0.367879 0
w 232 2.718282 0
w -233 0.367879 0
w 233 2.718282 0
w -235 0.367879 0
w 235 2.718282 0
w -236 0.367879 0
w 236 2.718282 0
w -238 0.367879 0
w 238 2.718282 0
w -239 0.367879 0
w 239 2.718282 0
w -241 0.367879 0
w 241 2.718282 0
w -242 0.367879 0
w 242 2.718282 0
w -244 0.367879 0
w 244 2.718282 0
w -245 0.367879 0
w 245 2.718282 0
w -247 0.367879 0
w 247 2.718282 0
w -248 0.367879 0
w 248 2.718282 0
w -250 0.367879 0
w 250 2.718282 0
w -251 0.367879 0
w 251 2.718282 0
w -253 0.367879 0
w 253 2.718282 0
w -254 0.367879 0
w 254 2.718282 0
w -256 0.367879 0
w 256 2.718282 0
w -258 0.367879 0
w 258 2.718282 0
w -259 0.367879 0
w 259 2.718282 0
w -261 0.367879 0
w 261 2.718282 0
w -262 0.367879 0
w 262 2.718282 0
w -264 0.367879 0
w 264 2.718282 0
w -265 0.367879 0
w 265 2.718282 0
w -267 0.367879 0
w 267 2.718282 0
w -268 0.367879 0
w 268 2.718282 0
w -270 0.367879 0
w 270 2.718282 0
w -271 0.367879 0
w 271 2.718282 0
w -273 0.367879 0
w 273 2.718282 0
w -274 0.367879 0
w 274 2.718282 0
w -276 0.367879 0
w 276 2.718282 0
w -277 0.367879 0
w 277 2.718282 0
w -279 0.367879 0
w 279 2.718282 0
w -280 0.367879 0
w 280 2.718282 0
w -282 0.367879 0
w 282 2.718282 0
w -283 0.367879 0
w 283 2.718282 0
w -285 0.367879 0
w 285 2.718282 0
w -286 0.367879 0
w 286 2.718282 0
w -288 0.367879 0
w 288 2.718282 0
w -290 0.367879 0
w 290 2.718282 0
w -291 0.367879 0
w 291 2.718282 0
w -293 0.367879 0
w 293 2.718282 0
w -294 0.367879 0
w 294 2.718282 0
w -296 0.367879 0
w 296 2.718282 0
w -297 0.367879 0
w 297 2.718282 0
w -299 0.367879 0
w 299 2.718282 0
w -300 0.367879 0
w 300 2.718282 0
w -302 0.367879 0
w 302 2.718282 0
w -303 0.367879 0
w 303 2.718282 0
w -305 0.367879 0
w 305 2.718282 0
w -306 0.367879 0
w 306 2.718282 0
w -308 0.367879 0
w 308 2.718282 0
w -309 0.367879 0
w 309 2.718282 0
w -311 0.367879 0
w 311 2.718282 0
w -312 0.367879 0
w 312 2.718282 0
w -314 0.367879 0
w 314 2.718282 0
w -315 0.367879 0
w 315 2.718282 0
w -317 0.367879 0
w 317 2.718282 0
w -318 0.367879 0
w 318 2.718282 0
w -320 0.367879 0
w 320 2.718282 0
w -322 0.367879 0
w 322 2.718282 0
w -324 0.367879 0
w 324 2.718282 0
w -326 0.367879 0
w 326 2.718282 0
w -328 0.367879 0
w 328 2.718282 0
w -330 0.367879 0
w 330 2.718282 0
w -332 0.367879 0
w 332 2.718282 0
w -334 0.367879 0
w 334 2.718282 0
w -336 0.367879 0
w 336 2.718282 0
w -338 0.367879 0
w 338 2.718282 0
w -340 0.367879 0
w 340 2.718282 0
2 1 4 0
2 -1 -4 0
-2 1 -4 0
-2 -1 4 0
3 1 33 0
3 -1 -33 0
-3 1 -33 0
-3 -1 33 0
5 4 7 0
5 -4 -7 0
-5 4 -7 0
-5 -4 7 0
6 4 36 0
6 -4 -36 0
-6 4 -36 0
-6 -4 36 0
8 7 10 0
8 -7 -10 0
-8 7 -10 0
-8 -7 10 0
9 7 39 0
9 -7 -39 0
-9 7 -39 0
-9 -7 39 0
11 10 13 0
11 -10 -13 0
-11 10 -13 0
-11 -10 13 0
12 10 42 0
12 -10 -42 0
-12 10 -42 0
-12 -10 42 0
14 13 16 0
14 -13 -16 0
-14 13 -16 0
-14 -13 16 0
15 13 45 0
15 -13 -45 0
-15 13 -45 0
-15 -13 45 0
17 16 19 0
17 -16 -19 0
-17 16 -19 0
-17 -16 19 0
18 16 48 0
18 -16 -48 0
-18 16 -48 0
-18 -16 48 0
20 19 22 0
20 -19 -22 0
-20 19 -22 0
-20 -19 22 0
21 19 51 0
21 -19 -51 0
-21 19 -51 0
-21 -19 51 0
23 22 25 0
23 -22 -25 0
-23 22 -25 0
-23 -22 25 0
24 22 54 0
24 -22 -54 0
-24 22 -54 0
-24 -22 54 0
26 25 28 0
26 -25 -28 0
-26 25 -28 0
-26 -25 28 0
27 25 57 0
27 -25 -57 0
-27 25 -57 0
-27 -25 57 0
29 28 31 0
29 -28 -31 0
-29 28 -31 0
-29 -28 31 0
30 28 60 0
30 -28 -60 0
-30 28 -60 0
-30 -28 60 0
32 31 63 0
32 -31 -63 0
-32 31 -63 0
-32 -31 63 0
34 33 36 0
34 -33 -36 0
-34 33 -36 0
-34 -33 36 0
35 33 65 0
35 -33 -65 0
-35 33 -65 0
-35 -33 65 0
37 36 39 0
37 -36 -39 0
-37 36 -39 0
-37 -36 39 0
38 36 68 0
38 -36 -68 0
-38 36 -68 0
-38 -36 68 0
40 39 42 0
40 -39 -42 0
-40 39 -42 0
-40 -39 42 0
41 39 71 0
41 -39 -71 0
-41 39 -71 0
-41 -39 71 0
43 42 45 0
43 -42 -45 0
-43 42 -45 0
-43 -42 45 0
44 42 74 0
44 -42 -74 0
-44 42 -74 0
-44 -42 74 0
46 45 48 0
46 -45 -48 0
-46 45 -48 0
-46 -45 48 0
47 45 77 0
47 -45 -77 0
-47 45 -77 0
-47 -45 77 0
49 48 51 0
49 -48 -51 0
-49 48 -51 0
-49 -48 51 0
50 48 80 0
50 -48 -80 0
-50 48 -80 0
-50 -48 80 0
52 51 54 0
52 -51 -54 0
-52 51 -54 0
-52 -51 54 0
53 51 83 0
53 -51 -83 0
-53 51 -83 0
-53 -51 83 0
55 54 57 0
55 -54 -57 0
-55 54 -57 0
-55 -54 57 0
56 54 86 0
56 -54 -86 0
-56 54 -86 0
-56 -54 86 0
58 57 60 0
58 -57 -60 0
-58 57 -60 0
-58 -57 60 0
59 57 89 0
59 -57 -89 0
-59 57 -89 0
-59 -57 89 0
61 60 63 0
61 -60 -63 0
-61 60 -63 0
-61 -60 63 0
62 60 92 0
62 -60 -92 0
-62 60 -92 0
-62 -60 92 0
64 63 95 0
64 -63 -95 0
-64 63 -95 0
-64 -63 95 0
66 65 68 0
66 -65 -68 0
-66 65 -68 0
-66 -65 68 0
67 65 97 0
67 -65 -97 0
-67 65 -97 0
-67 -65 97 0
69 68 71 0
69 -68 -71 0
-69 68 -71 0
-69 -68 71 0
70 68 100 0
70 -68 -100 0
-70 68 -100 0
-70 -68 100 0
72 71 74 0
72 -71 -74 0
-72 71 -74 0
-72 -71 74 0
73 71 103 0
73 -71 -103 0
-73 71 -103 0
-73 -71 103 0
75 74 77 0
75 -74 -77 0
-75 74 -77 0
-75 -74 77 0
76 74 106 0
76 -74 -106 0
-76 74 -106 0
-76 -74 106 0
78 77 80 0
78 -77 -80 0
-78 77 -80 0
-78 -77 80 0
79 77 109 0
79 -77 -109 0
-79 77 -109 0
-79 -77 109 0
81 80 83 0
81 -80 -83 0
-81 80 -83 0
-81 -80 83 0
82 80 112 0
82 -80 -112 0
-82 80 -112 0
-82 -80 112 0
84 83 86 0
84 -83 -86 0
-84 83 -86 0
-84 -83 86 0
85 83 115 0
85 -83 -115 0
-85 83 -115 0
-85 -83 115 0
87 86 89 0
87 -86 -89 0
-87 86 -89 0
-87 -86 89 0
88 86 118 0
88 -86 -118 0
-88 86 -118 0
-88 -86 118 0
90 89 92 0
90 -89 -92 0
-90 89 -92 0
-90 -89 92 0
91 89 121 0
91 -89 -121 0
-91 89 -121 0
-91 -89 121 0
93 92 95 0
93 -92 -95 0
-93 92 -95 0
-93 -92 95 0
94 92 124 0
94 -92 -124 0
-94 92 -124 0
-94 -92 124 0
96 95 127 0
96 -95 -127 0
-96 95 -127 0
-96 -95 127 0
98 97 100 0
98 -97 -100 0
-98 97 -100 0
-98 -97 100 0
99 97 129 0
99 -97 -129 0
-99 97 -129 0
-99 -97 129 0
101 100 103 0
101 -100 -103 0
-101 100 -103 0
-101 -100 103 0
102 100 132 0
102 -100 -132 0
-102 100 -132 0
-102 -100 132 0
104 103 106 0
104 -103 -106 0
-104 103 -106 0
-104 -103 106 0
105 103 135 0
105 -103 -135 0
-105 103 -135 0
-105 -103 135 0
107 106 109 0
107 -106 -109 0
-107 106 -109 0
-107 -106 109 0
108 106 138 0
108 -106 -138 0
-108 106 -138 0
-108 -106 138 0
110 109 112 0
110 -109 -112 0
-110 109 -112 0
-110 -109 112 0
111 109 141 0
111 -109 -141 0
-111 109 -141 0
-111 -109 141 0
113 112 115 0
113 -112 -115 0
-113 112 -115 0
-113 -112 115 0
114 112 144 0
114 -112 -144 0
-114 112 -144 0
-114 -112 144 0
116 115 118 0
116 -115 -118 0
-116 115 -118 0
-116 -115 118 0
117 115 147 0
117 -115 -147 0
-117 115 -147 0
-117 -115 147 0
119 118 121 0
119 -118 -121 0
-119 118 -121 0
-119 -118 121 0
120 118 150 0
120 -118 -150 0
-120 118 -150 0
-120 -118 150 0
122 121 124 0
122 -121 -124 0
-122 121 -124 0
-122 -121 124 0
123 121 153 0
123 -121 -153 0
-123 121 -153 0
-123 -121 153 0
125 124 127 0
125 -124 -127 0
-125 124 -127 0
-125 -124 127 0
126 124 156 0
126 -124 -156 0
-126 124 -156 0
-126 -124 156 0
128 127 159 0
128 -127 -159 0
-128 127 -159 0
-128 -127 159 0
130 129 132 0
130 -129 -132 0
-130 129 -132 0
-130 -129 132 0
131 129 161 0
131 -129 -161 0
-131 129 -161 0
-131 -129 161 0
133 132 135 0
133 -132 -135 0
-133 132 -135 0
-133 -132 135 0
134 132 164 0
134 -132 -164 0
-134 132 -164 0
-134 -132 164 0
136 135 138 0
136 -135 -138 0
-136 135 -138 0
-136 -135 138 0
137 135 167 0
137 -135 -167 0
-137 135 -167 0
-137 -135 167 0
139 138 141 0
139 -138 -141 0
-139 138 -141 0
-139 -138 141 0
140 138 170 0
140 -138 -170 0
-140 138 -170 0
-140 -138 170 0
142 141 144 0
142 -141 -144 0
-142 141 -144 0
-142 -141 144 0
143 141 173 0
143 -141 -173 0
-143 141 -173 0
-143 -141 173 0
145 144 147 0
145 -144 -147 0
-145 144 -147 0
-145 -144 147 0
146 144 176 0
146 -144 -176 0
-146 144 -176 0
-146 -144 176 0
148 147 150 0
148 -147 -150 0
-148 147 -150 0
-148 -147 150 0
149 147 179 0
149 -147 -179 0
-149 147 -179 0
-149 -147 179 0
151 150 153 0
151 -150 -153 0
-151 150 -153 0
-151 -150 153 0
152 150 182 0
152 -150 -182 0
-152 150 -182 0
-152 -150 182 0
154 153 156 0
154 -153 -156 0
-154 153 -156 0
-154 -153 156 0
155 153 185 0
155 -153 -185 0
-155 153 -185 0
-155 -153 185 0
157 156 159 0
157 -156 -159 0
-157 156 -159 0
-157 -156 159 0
158 156 188 0
158 -156 -188 0
-158 156 -188 0
-158 -156 188 0
160 159 191 0
160 -159 -191 0
-160 159 -191 0
-160 -159 191 0
162 161 164 0
162 -161 -164 0
-162 161 -164 0
-162 -161 164 0
163 161 193 0
163 -161 -193 0
-163 161 -193 0
-163 -161 193 0
165 164 167 0
165 -164 -167 0
-165 164 -167 0
-165 -164 167 0
166 164 196 0
166 -164 -196 0
-166 164 -196 0
-166 -164 196 0
168 167 170 0
168 -167 -170 0
-168 167 -170 0
-168 -167 170 0
169 167 199 0
169 -167 -199 0
-169 167 -199 0
-169 -167 199 0
171 170 173 0
171 -170 -173 0
-171 170 -173 0
-171 -170 173 0
172 170 202 0
172 -170 -202 0
-172 170 -202 0
-172 -170 202 0
174 173 176 0
174 -173 -176 0
-174 173 -176 0
-174 -173 176 0
175 173 205 0
175 -173 -205 0
-175 173 -205 0
-175 -173 205 0
177 176 179 0
177 -176 -179 0
-177 176 -179 0
-177 -176 179 0
178 176 208 0
178 -176 -208 0
-178 176 -208 0
-178 -176 208 0
180 179 182 0
180 -179 -182 0
-180 179 -182 0
-180 -179 182 0
181 179 211 0
181 -179 -211 0
-181 179 -211 0
-181 -179 211 0
183 182 185 0
183 -182 -185 0
-183 182 -185 0
-183 -182 185 0
184 182 214 0
184 -182 -214 0
-184 182 -214 0
-184 -182 214 0
186 185 188 0
186 -185 -188 0
-186 185 -188 0
-186 -185 188 0
187 185 217 0
187 -185 -217 0
-187 185 -217 0
-187 -185 217 0
189 188 191 0
189 -188 -191 0
-189 188 -191 0
-189 -188 191 0
190 188 220 0
190 -188 -220 0
-190 188 -220 0
-190 -188 220 0
192 191 223 0
192 -191 -223 0
-192 191 -223 0
-192 -191 223 0
194 193 196 0
194 -193 -196 0
-194 193 -196 0
-194 -193 196 0
195 193 225 0
195 -193 -225 0
-195 193 -225 0
-195 -193 225 0
197 196 199 0
197 -196 -199 0
-197 196 -199 0
-197 -196 199 0
198 196 228 0
198 -196 -228 0
-198 196 -228 0
-198 -196 228 0
200 199 202 0
200 -199 -202 0
-200 199 -202 0
-200 -199 202 0
201 199 231 0
201 -199 -231 0
-201 199 -231 0
-201 -199 231 0
203 202 205 0
203 -202 -205 0
-203 202 -205 0
-203 -202 205 0
204 202 234 0
204 -202 -234 0
-204 202 -234 0
-204 -202 234 0
206 205 208 0
206 -205 -208 0
-206 205 -208 0
-206 -205 208 0
207 205 237 0
207 -205 -237 0
-207 205 -237 0
-207 -205 237 0
209 208 211 0
209 -208 -211 0
-209 208 -211 0
-209 -208 211 0
210 208 240 0
210 -208 -240 0
-210 208 -240 0
-210 -208 240 0
212 211 214 0
212 -211 -214 0
-212 211 -214 0
-212 -211 214 0
213 211 243 0
213 -211 -243 0
-213 211 -243 0
-213 -211 243 0
215 214 217 0
215 -214 -217 0
-215 214 -217 0
-215 -214 217 0
216 214 246 0
216 -214 -246 0
-216 214 -246 0
-216 -214 246 0
218 217 220 0
218 -217 -220 0
-218 217 -220 0
-218 -217 220 0
219 217 249 0
219 -217 -249 0
-219 217 -249 0
-219 -217 249 0
221 220 223 0
221 -220 -223 0
-221 220 -223 0
-221 -220 223 0
222 220 252 0
222 -220 -252 0
-222 220 -252 0
-222 -220 252 0
224 223 255 0
224 -223 -255 0
-224 223 -255 0
-224 -223 255 0
226 225 228 0
226 -225 -228 0
-226 225 -228 0
-226 -225 228 0
227 225 257 0
227 -225 -257 0
-227 225 -257 0
-227 -225 257 0
229 228 231 0
229 -228 -231 0
-229 228 -231 0
-229 -228 231 0
230 228 260 0
230 -228 -260 0
-230 228 -260 0
-230 -228 260 0
232 231 234 0
232 -231 -234 0
-232 231 -234 0
-232 -231 234 0
233 231 263 0
233 -231 -263 0
-233 231 -263 0
-233 -231 263 0
235 234 237 0
235 -234 -237 0
-235 234 -237 0
-235 -234 237 0
236 234 266 0
236 -234 -266 0
-236 234 -266 0
-236 -234 266 0
238 237 240 0
238 -237 -240 0
-238 237 -240 0
-238 -237 240 0
239 237 269 0
239 -237 -269 0
-239 237 -269 0
-239 -237 269 0
241 240 243 0
241 -240 -243 0
-241 240 -243 0
-241 -240 243 0
242 240 272 0
242 -240 -272 0
-242 240 -272 0
-242 -240 272 0
244 243 246 0
244 -243 -246 0
-244 243 -246 0
-244 -243 246 0
245 243 275 0
245 -243 -275 0
-245 243 -275 0
-245 -243 275 0
247 246 249 0
247 -246 -249 0
-247 246 -249 0
-247 -246 249 0
248 246 278 0
248 -246 -278 0
-248 246 -278 0
-248 -246 278 0
250 249 252 0
250 -249 -252 0
-250 249 -252 0
-250 -249 252 0
251 249 281 0
251 -249 -281 0
-251 249 -281 0
-251 -249 281 0
253 252 255 0
253 -252 -255 0
-253 252 -255 0
-253 -252 255 0
254 252 284 0
254 -252 -284 0
-254 252 -284 0
-254 -252 284 0
256 255 287 0
256 -255 -287 0
-256 255 -287 0
-256 -255 287 0
258 257 260 0
258 -257 -260 0
-258 257 -260 0
-258 -257 260 0
259 257 289 0
259 -257 -289 0
-259 257 -289 0
-259 -257 289 0
261 260 263 0
261 -260 -263 0
-261 260 -263 0
-261 -260 263 0
262 260 292 0
262 -260 -292 0
-262 260 -292 0
-262 -260 292 0
264 263 266 0
264 -263 -266 0
-264 263 -266 0
-264 -263 266 0
265 263 295 0
265 -263 -295 0
-265 263 -295 0
-265 -263 295 0
267 266 269 0
267 -266 -269 0
-267 266 -269 0
-267 -266 269 0
268 266 298 0
268 -266 -298 0
-268 266 -298 0
-268 -266 298 0
270 269 272 0
270 -269 -272 0
-270 269 -272 0
-270 -269 272 0
271 269 301 0
271 -269 -301 0
-271 269 -301 0
-271 -269 301 0
273 272 275 0
273 -272 -275 0
-273 272 -275 0
-273 -272 275 0
274 272 304 0
274 -272 -304 0
-274 272 -304 0
-274 -272 304 0
276 275 278 0
276 -275 -278 0
-276 275 -278 0
-276 -275 278 0
277 275 307 0
277 -275 -307 0
-277 275 -307 0
-277 -275 307 0
279 278 281 0
279 -278 -281 0
-279 278 -281 0
-279 -278 281 0
280 278 310 0
280 -278 -310 0
-280 278 -310 0
-280 -278 310 0
282 281 284 0
282 -281 -284 0
-282 281 -284 0
-282 -281 284 0
283 281 313 0
283 -281 -313 0
-283 281 -313 0
-283 -281 313 0
285 284 287 0
285 -284 -287 0
-285 284 -287 0
-285 -284 287 0
286 284 316 0
286 -284 -316 0
-286 284 -316 0
-286 -284 316 0
288 287 319 0
288 -287 -319 0
-288 287 -319 0
-288 -287 319 0
290 289 292 0
290 -289 -292 0
-290 289 -292 0
-290 -289 292 0
291 289 321 0
291 -289 -321 0
-291 289 -321 0
-291 -289 321 0
293 292 295 0
293 -292 -295 0
-293 292 -295 0
-293 -292 295 0
294 292 323 0
294 -292 -323 0
-294 292 -323 0
-294 -292 323 0
296 295 298 0
296 -295 -298 0
-296 295 -298 0
-296 -295 298 0
297 295 325 0
297 -295 -325 0
-297 295 -325 0
-297 -295 325 0
299 298 301 0
299 -298 -301 0
-299 298 -301 0
-299 -298 301 0
300 298 327 0
300 -298 -327 0
-300 298 -327 0
-300 -298 327 0
302 301 304 0
302 -301 -304 0
-302 301 -304 0
-302 -301 304 0
303 301 329 0
303 -301 -329 0
-303 301 -329 0
-303 -301 329 0
305 304 307 0
305 -304 -307 0
-305 304 -307 0
-305 -304 307 0
306 304 331 0
306 -304 -331 0
-306 304 -331 0
-306 -304 331 0
308 307 310 0
308 -307 -310 0
-308 307 -310 0
-308 -307 310 0
309 307 333 0
309 -307 -333 0
-309 307 -333 0
-309 -307 333 0
311 310 313 0
311 -310 -313 0
-311 310 -313 0
-311 -310 313 0
312 310 335 0
312 -310 -335 0
-312 310 -335 0
-312 -310 335 0
314 313 316 0
314 -313 -316 0
-314 313 -316 0
-314 -313 316 0
315 313 337 0
315 -313 -337 0
-315 313 -337 0
-315 -313 337 0
317 316 319 0
317 -316 -319 0
-317 316 -319 0
-317 -316 319 0
318 316 339 0
318 -316 -339 0
-318 316 -339 0
-318 -316 339 0
320 319 341 0
320 -319 -341 0
-320 319 -341 0
-320 -319 341 0
322 321 323 0
322 -321 -323 0
-322 321 -323 0
-322 -321 323 0
324 323 325 0
324 -323 -325 0
-324 323 -325 0
-324 -323 325 0
326 325 327 0
326 -325 -327 0
-326 325 -327 0
-326 -325 327 0
328 327 329 0
328 -327 -329 0
-328 327 -329 0
-328 -327 329 0
330 329 331 0
330 -329 -331 0
-330 329 -331 0
-330 -329 331 0
332 331 333 0
332 -331 -333 0
-332 331 -333 0
-332 -331 333 0
334 333 335 0
334 -333 -335 0
-334 333 -335 0
-334 -333 335 0
336 335 337 0
336 -335 -337 0
-336 335 -337 0
-336 -335 337 0
338 337 339 0
338 -337 -339 0
-338 337 -339 0
-338 -337 339 0
340 339 341 0
340 -339 -341 0
-340 339 -341 0
-340 -339 341 0
