benchmarks/ising_models/2DLattices/SqrLattices/J=1/11x11_square_lattice
ISING
121
2 2 2 2 2 2 2 2 2 2 2 2 2 2 2 2 2 2 2 2 2 2 2 2 2 2 2 2 2 2 2 2 2 2 2 2 2 2 2 2 2 2 2 2 2 2 2 2 2 2 2 2 2 2 2 2 2 2 2 2 2 2 2 2 2 2 2 2 2 2 2 2 2 2 2 2 2 2 2 2 2 2 2 2 2 2 2 2 2 2 2 2 2 2 2 2 2 2 2 2 2 2 2 2 2 2 2 2 2 2 2 2 2 2 2 2 2 2 2 2 2
0 220 1 1
2 0 1
2 0 11
2 1 2
2 1 12
2 2 3
2 2 13
2 3 4
2 3 14
2 4 5
2 4 15
2 5 6
2 5 16
2 6 7
2 6 17
2 7 8
2 7 18
2 8 9
2 8 19
2 9 10
2 9 20
2 10 21
2 11 12
2 11 22
2 12 13
2 12 23
2 13 14
2 13 24
2 14 15
2 14 25
2 15 16
2 15 26
2 16 17
2 16 27
2 17 18
2 17 28
2 18 19
2 18 29
2 19 20
2 19 30
2 20 21
2 20 31
2 21 32
2 22 23
2 22 33
2 23 24
2 23 34
2 24 25
2 24 35
2 25 26
2 25 36
2 26 27
2 26 37
2 27 28
2 27 38
2 28 29
2 28 39
2 29 30
2 29 40
2 30 31
2 30 41
2 31 32
2 31 42
2 32 43
2 33 34
2 33 44
2 34 35
2 34 45
2 35 36
2 35 46
2 36 37
2 36 47
2 37 38
2 37 48
2 38 39
2 38 49
2 39 40
2 39 50
2 40 41
2 40 51
2 41 42
2 41 52
2 42 43
2 42 53
2 43 54
2 44 45
2 44 55
2 45 46
2 45 56
2 46 47
2 46 57
2 47 48
2 47 58
2 48 49
2 48 59
2 49 50
2 49 60
2 50 51
2 50 61
2 51 52
2 51 62
2 52 53
2 52 63
2 53 54
2 53 64
2 54 65
2 55 56
2 55 66
2 56 57
2 56 67
2 57 58
2 57 68
2 58 59
2 58 69
2 59 60
2 59 70
2 60 61
2 60 71
2 61 62
2 61 72
2 62 63
2 62 73
2 63 64
2 63 74
2 64 65
2 64 75
2 65 76
2 66 67
2 66 77
2 67 68
2 67 78
2 68 69
2 68 79
2 69 70
2 69 80
2 70 71
2 70 81
2 71 72
2 71 82
2 72 73
2 72 83
2 73 74
2 73 84
2 74 75
2 74 85
2 75 76
2 75 86
2 76 87
2 77 78
2 77 88
2 78 79
2 78 89
2 79 80
2 79 90
2 80 81
2 80 91
2 81 82
2 81 92
2 82 83
2 82 93
2 83 84
2 83 94
2 84 85
2 84 95
2 85 86
2 85 96
2 86 87
2 86 97
2 87 98
2 88 89
2 88 99
2 89 90
2 89 100
2 90 91
2 90 101
2 91 92
2 91 102
2 92 93
2 92 103
2 93 94
2 93 104
2 94 95
2 94 105
2 95 96
2 95 106
2 96 97
2 96 107
2 97 98
2 97 108
2 98 109
2 99 100
2 99 110
2 100 101
2 100 111
2 101 102
2 101 112
2 102 103
2 102 113
2 103 104
2 103 114
2 104 105
2 104 115
2 105 106
2 105 116
2 106 107
2 106 117
2 107 108
2 107 118
2 108 109
2 108 119
2 109 120
2 110 111
2 111 112
2 112 113
2 113 114
2 114 115
2 115 116
2 116 117
2 117 118
2 118 119
2 119 120

4
 1 -1
 -1 1
4
 1 -1
 -1 1
4
 1 -1
 -1 1
4
 1 -1
 -1 1
4
 1 -1
 -1 1
4
 1 -1
 -1 1
4
 1 -1
 -1 1
4
 1 -1
 -1 1
4
 1 -1
 -1 1
4
 1 -1
 -1 1
4
 1 -1
 -1 1
4
 1 -1
 -1 1
4
 1 -1
 -1 1
4
 1 -1
 -1 1
4
 1 -1
 -1 1
4
 1 -1
 -1 1
4
 1 -1
 -1 1
4
 1 -1
 -1 1
4
 1 -1
 -1 1
4
 1 -1
 -1 1
4
 1 -1
 -1 1
4
 1 -1
 -1 1
4
 1 -1
 -1 1
4
 1 -1
 -1 1
4
 1 -1
 -1 1
4
 1 -1
 -1 1
4
 1 -1
 -1 1
4
 1 -1
 -1 1
4
 1 -1
 -1 1
4
 1 -1
 -1 1
4
 1 -1
 -1 1
4
 1 -1
 -1 1
4
 1 -1
 -1 1
4
 1 -1
 -1 1
4
 1 -1
 -1 1
4
 1 -1
 -1 1
4
 1 -1
 -1 1
4
 1 -1
 -1 1
4
 1 -1
 -1 1
4
 1 -1
 -1 1
4
 1 -1
 -1 1
4
 1 -1
 -1 1
4
 1 -1
 -1 1
4
 1 -1
 -1 1
4
 1 -1
 -1 1
4
 1 -1
 -1 1
4
 1 -1
 -1 1
4
 1 -1
 -1 1
4
 1 -1
 -1 1
4
 1 -1
 -1 1
4
 1 -1
 -1 1
4
 1 -1
 -1 1
4
 1 -1
 -1 1
4
 1 -1
 -1 1
4
 1 -1
 -1 1
4
 1 -1
 -1 1
4
 1 -1
 -1 1
4
 1 -1
 -1 1
4
 1 -1
 -1 1
4
 1 -1
 -1 1
4
 1 -1
 -1 1
4
 1 -1
 -1 1
4
 1 -1
 -1 1
4
 1 -1
 -1 1
4
 1 -1
 -1 1
4
 1 -1
 -1 1
4
 1 -1
 -1 1
4
 1 -1
 -1 1
4
 1 -1
 -1 1
4
 1 -1
 -1 1
4
 1 -1
 -1 1
4
 1 -1
 -1 1
4
 1 -1
 -1 1
4
 1 -1
 -1 1
4
 1 -1
 -1 1
4
 1 -1
 -1 1
4
 1 -1
 -1 1
4
 1 -1
 -1 1
4
 1 -1
 -1 1
4
 1 -1
 -1 1
4
 1 -1
 -1 1
4
 1 -1
 -1 1
4
 1 -1
 -1 1
4
 1 -1
 -1 1
4
 1 -1
 -1 1
4
 1 -1
 -1 1
4
 1 -1
 -1 1
4
 1 -1
 -1 1
4
 1 -1
 -1 1
4
 1 -1
 -1 1
4
 1 -1
 -1 1
4
 1 -1
 -1 1
4
 1 -1
 -1 1
4
 1 -1
 -1 1
4
 1 -1
 -1 1
4
 1 -1
 -1 1
4
 1 -1
 -1 1
4
 1 -1
 -1 1
4
 1 -1
 -1 1
4
 1 -1
 -1 1
4
 1 -1
 -1 1
4
 1 -1
 -1 1
4
 1 -1
 -1 1
4
 1 -1
 -1 1
4
 1 -1
 -1 1
4
 1 -1
 -1 1
4
 1 -1
 -1 1
4
 1 -1
 -1 1
4
 1 -1
 -1 1
4
 1 -1
 -1 1
4
 1 -1
 -1 1
4
 1 -1
 -1 1
4
 1 -1
 -1 1
4
 1 -1
 -1 1
4
 1 -1
 -1 1
4
 1 -1
 -1 1
4
 1 -1
 -1 1
4
 1 -1
 -1 1
4
 1 -1
 -1 1
4
 1 -1
 -1 1
4
 1 -1
 -1 1
4
 1 -1
 -1 1
4
 1 -1
 -1 1
4
 1 -1
 -1 1
4
 1 -1
 -1 1
4
 1 -1
 -1 1
4
 1 -1
 -1 1
4
 1 -1
 -1 1
4
 1 -1
 -1 1
4
 1 -1
 -1 1
4
 1 -1
 -1 1
4
 1 -1
 -1 1
4
 1 -1
 -1 1
4
 1 -1
 -1 1
4
 1 -1
 -1 1
4
 1 -1
 -1 1
4
 1 -1
 -1 1
4
 1 -1
 -1 1
4
 1 -1
 -1 1
4
 1 -1
 -1 1
4
 1 -1
 -1 1
4
 1 -1
 -1 1
4
 1 -1
 -1 1
4
 1 -1
 -1 1
4
 1 -1
 -1 1
4
 1 -1
 -1 1
4
 1 -1
 -1 1
4
 1 -1
 -1 1
4
 1 -1
 -1 1
4
 1 -1
 -1 1
4
 1 -1
 -1 1
4
 1 -1
 -1 1
4
 1 -1
 -1 1
4
 1 -1
 -1 1
4
 1 -1
 -1 1
4
 1 -1
 -1 1
4
 1 -1
 -1 1
4
 1 -1
 -1 1
4
 1 -1
 -1 1
4
 1 -1
 -1 1
4
 1 -1
 -1 1
4
 1 -1
 -1 1
4
 1 -1
 -1 1
4
 1 -1
 -1 1
4
 1 -1
 -1 1
4
 1 -1
 -1 1
4
 1 -1
 -1 1
4
 1 -1
 -1 1
4
 1 -1
 -1 1
4
 1 -1
 -1 1
4
 1 -1
 -1 1
4
 1 -1
 -1 1
4
 1 -1
 -1 1
4
 1 -1
 -1 1
4
 1 -1
 -1 1
4
 1 -1
 -1 1
4
 1 -1
 -1 1
4
 1 -1
 -1 1
4
 1 -1
 -1 1
4
 1 -1
 -1 1
4
 1 -1
 -1 1
4
 1 -1
 -1 1
4
 1 -1
 -1 1
4
 1 -1
 -1 1
4
 1 -1
 -1 1
4
 1 -1
 -1 1
4
 1 -1
 -1 1
4
 1 -1
 -1 1
4
 1 -1
 -1 1
4
 1 -1
 -1 1
4
 1 -1
 -1 1
4
 1 -1
 -1 1
4
 1 -1
 -1 1
4
 1 -1
 -1 1
4
 1 -1
 -1 1
4
 1 -1
 -1 1
4
 1 -1
 -1 1
4
 1 -1
 -1 1
4
 1 -1
 -1 1
4
 1 -1
 -1 1
4
 1 -1
 -1 1
4
 1 -1
 -1 1
4
 1 -1
 -1 1
4
 1 -1
 -1 1
4
 1 -1
 -1 1
4
 1 -1
 -1 1
4
 1 -1
 -1 1
4
 1 -1
 -1 1
4
 1 -1
 -1 1
4
 1 -1
 -1 1
4
 1 -1
 -1 1
4
 1 -1
 -1 1
4
 1 -1
 -1 1
4
 1 -1
 -1 1
4
 1 -1
 -1 1
4
 1 -1
 -1 1
4
 1 -1
 -1 1
4
 1 -1
 -1 1
4
 1 -1
 -1 1
4
 1 -1
 -1 1
